unsat
(define-fun inv ((x Int) (y Int)) Bool (let ((_let_1 (+ (* (- 1) y) (* 1 x)))) (or (<= _let_1 2) (= _let_1 0))))
1.62user 0.00system 0:01.62elapsed 100%CPU (0avgtext+0avgdata 37276maxresident)k
0inputs+8outputs (0major+3977minor)pagefaults 0swaps
